! Opt BP86 def2-SVP def2/J RIJCOSX D4
%geom MaxIter 100 end
%output 
xyzfile=True 
end 
%scf 
maxiter 250 
end
%output
Print[P_Hirshfeld] = 1
end
% maxcore
4000
%pal nprocs 8
end
*xyz -1 1
C    1.02265695   0.93639607  -0.00707641 
C   -0.28475184   1.35757584  -0.00845156 
C   -1.30189577   0.41992427  -0.00135463 
C   -1.02415322  -0.93535552   0.00710696 
C    0.28287742  -1.35758917   0.00848922 
C    1.39215048  -0.44897592   0.00148911 
O    2.58982209  -0.83505881   0.00273523 
F   -2.62609355   0.84686212  -0.00274957 
H    1.82178303   1.66868475  -0.01262589 
H   -0.53321297   2.41333065  -0.01500991 
H   -1.84269633  -1.64706590   0.01254054 
H    0.50341370  -2.41872838   0.01510692 
*
