! Opt BP86 def2-SVP def2/J RIJCOSX D4
%geom MaxIter 100 end
%output 
xyzfile=True 
end 
%scf 
maxiter 250 
end
%output
Print[P_Hirshfeld] = 1
end
% maxcore
4000
%pal nprocs 8
end
*xyz 0 1
C    0.52601396  -1.10499033   0.05424617 
C   -0.77962919  -1.14833725   0.50844850 
C   -1.52225388   0.01662773   0.51595074 
C   -0.99375235   1.21985668   0.08271808 
C    0.30984909   1.25566826  -0.36974521 
C    1.07700434   0.09330021  -0.38709760 
O    2.35388366   0.17495255  -0.84427136 
F   -2.79922504  -0.02073981   0.95826922 
H    1.12078522  -2.00839083   0.04183330 
H   -1.21929080  -2.07084246   0.85235713 
H   -1.60132650   2.11029792   0.10249230 
H    0.75339309   2.17529078  -0.71475402 
H    2.77444840  -0.69259345  -0.80044725 
*
