! Freq PBE0 def2-SVP def2/J RIJCOSX D4
%output 
xyzfile=True 
end 
%scf 
maxiter 250 
end
%output
Print[P_Hirshfeld] = 1
end
% maxcore
4000
%pal nprocs 8
end
*xyz -1 1
C    1.03635198   0.94718107  -0.00717115 
C   -0.29813111   1.37456818  -0.00854567 
C   -1.33788970   0.43142946  -0.00137928 
C   -1.04502292  -0.94146452   0.00716646 
C    0.28774093  -1.37419374   0.00857687 
C    1.43362528  -0.46233896   0.00146834 
O    2.63900246  -0.85103227   0.00282623 
F   -2.65434453   0.85611628  -0.00278028 
H    1.85606297   1.68722645  -0.01276717 
H   -0.55603653   2.44877935  -0.01521146 
H   -1.88198328  -1.66254884   0.01268603 
H    0.52052442  -2.45372245   0.01533110 
*
